5787
5753
5725
5780
5801
5658
5840
5670
5849
5721
5771
5664
5757
5744
5703
5842
5731
5772
5756
5752
5796
5870
5782
5748
5744
5690
5694
5824
5750
5637
5793
5812
5694
5810
5841
5746
5843
5770
5733
5711
5630
5698
5785
5764
5773
5741
5745
5721
5725
5683
5704
5857
5902
5843
5761
5731
5753
5763
5776
5740
5823
5740
5808
5774
5745
5789
5768
5778
5779
5754
5823
5770
5764
5695
5874
5682
5770
5763
5809
5786
5698
5832
5769
5776
5784
5750
5737
5703
5727
5669
5810
5686
5799
5745
5735
5731
5788
5719
5812
5762
